(set-info :smt-lib-version 2.6)
(set-logic QF_BV)
(set-info :source |
 Patrice Godefroid, SAGE (systematic dynamic test generation)
 For more information: http://research.microsoft.com/en-us/um/people/pg/public_psfiles/ndss2008.pdf
|)
(set-info :category "industrial")
(set-info :status sat)
(declare-fun T1_21045 () (_ BitVec 8))
(declare-fun T1_20966 () (_ BitVec 8))
(declare-fun T1_20916 () (_ BitVec 8))
(declare-fun T1_20912 () (_ BitVec 8))
(declare-fun T2_20520 () (_ BitVec 16))
(declare-fun T1_20511 () (_ BitVec 8))
(declare-fun T1_21130 () (_ BitVec 8))
(declare-fun T2_20914 () (_ BitVec 16))
(declare-fun T1_20914 () (_ BitVec 8))
(declare-fun T1_20915 () (_ BitVec 8))
(declare-fun T1_20520 () (_ BitVec 8))
(declare-fun T1_20521 () (_ BitVec 8))
(assert (let ((?v_9 ((_ zero_extend 24) T1_21045)) (?v_8 ((_ zero_extend 24) T1_20966)) (?v_5 ((_ zero_extend 24) T1_20916)) (?v_6 ((_ zero_extend 24) T1_20912)) (?v_2 ((_ zero_extend 16) T2_20520)) (?v_1 (bvsub ((_ zero_extend 24) T1_20511) (_ bv8 32)))) (let ((?v_3 (bvadd (bvadd (bvadd (bvadd ?v_1 (_ bv4271429 32)) ?v_2) (_ bv7 32)) ?v_6))) (let ((?v_10 (bvadd (bvadd ?v_3 (_ bv3 32)) ?v_5))) (let ((?v_0 (bvsub (bvadd (bvadd ?v_10 ((_ zero_extend 24) (_ bv1 8))) ?v_8) (_ bv4271399 32)))) (let ((?v_14 (bvsub (bvadd (bvadd ?v_0 (_ bv4271400 32)) ?v_9) (_ bv1 32))) (?v_11 (bvsub ?v_10 (_ bv4271399 32)))) (let ((?v_13 (bvsub (bvadd (bvadd ?v_11 (_ bv4271400 32)) ?v_8) (_ bv1 32))) (?v_12 (bvadd ?v_11 (_ bv4271478 32))) (?v_7 ((_ zero_extend 16) T2_20914)) (?v_4 (bvsub ?v_3 (_ bv4271397 32)))) (and true (= T2_20520 (bvor (bvshl ((_ zero_extend 8) T1_20521) (_ bv8 16)) ((_ zero_extend 8) T1_20520))) (= T2_20914 (bvor (bvshl ((_ zero_extend 8) T1_20915) (_ bv8 16)) ((_ zero_extend 8) T1_20914))) (bvule ?v_14 (bvadd ?v_0 (_ bv4271434 32))) (not (= (bvadd (bvadd ?v_1 (_ bv29 32)) (_ bv4271400 32)) (_ bv0 32))) (not (= ?v_2 (_ bv0 32))) (bvult (bvadd ?v_4 (_ bv4271426 32)) (bvsub (bvadd (bvadd ?v_4 (_ bv4271400 32)) ?v_5) (_ bv1 32))) (= ?v_6 (_ bv1 32)) (not (= ?v_7 (_ bv0 32))) (= (bvadd (bvadd (bvadd (bvadd ?v_7 (bvsub (_ bv4294967295 32) ?v_5)) (bvsub (_ bv4294967295 32) ?v_8)) (bvsub (_ bv4294967295 32) ?v_9)) (bvsub (_ bv4294967295 32) ((_ zero_extend 24) T1_21130))) (_ bv0 32)) (bvule ?v_13 ?v_12) (not (= ?v_12 ?v_13)) (bvult (bvadd ?v_11 (_ bv4271462 32)) ?v_13) (bvult (bvadd ?v_0 (_ bv4271418 32)) ?v_14)))))))))
(check-sat)
(exit)
